






































































34 37 
26 39 
51 19 
29 2 
23 36 
28 44 
11 8 
7 25 
40 47 
55 4 
1 10 
62 27 
59 45 
58 69 
73 76 
52 63 
42 46 
74 49 
33 68 
31 38 
41 6 
0 13 
5 50 
14 43 
54 70 
22 
71 64 
30 48 
21 20 
3 
18 60 
32 57 
16 
9 
53 
72 67 

35 
65 12 
61 
24 56 
75 
66 15 
17 
